c This is UnifRandomKSATGenerator
c uniform random 3-SAT generated instance with: 
c clause length: 3 
c number variables: 20 
c number clauses: 85 
c clause to variable ratio: 4.27 
c random number generator name: SHA1PRNG 
c random number generator provider: SUN 
c random number generator seed: 968040260001224710 
p cnf 20 85
11 3 15 0
-9 -11 10 0
-19 -20 14 0
1 -2 18 0
-18 2 3 0
-18 -20 -12 0
1 -19 -8 0
2 -6 -14 0
-17 -4 7 0
-18 2 15 0
20 6 -8 0
-19 20 -16 0
8 7 -16 0
-1 10 -20 0
9 -11 12 0
-3 -13 5 0
-1 -17 -20 0
17 -10 11 0
1 13 -15 0
11 12 6 0
-9 14 -16 0
-17 11 -20 0
-9 11 -12 0
20 4 15 0
-9 17 -3 0
-1 -20 -8 0
-9 12 6 0
-2 -6 -7 0
-1 -6 -7 0
16 18 -4 0
11 -5 6 0
3 14 15 0
-10 20 4 0
18 14 7 0
2 18 4 0
-20 -5 -15 0
-3 2 -14 0
-9 -4 -13 0
-3 -20 -15 0
-18 -11 4 0
-18 -3 14 0
-1 8 7 0
2 -7 -8 0
-17 -9 13 0
-17 -9 15 0
-12 -7 14 0
19 -5 -7 0
-11 -12 -15 0
-20 -6 -14 0
10 11 -8 0
10 19 -16 0
-1 -4 -7 0
16 4 -15 0
-4 14 -15 0
-2 18 -14 0
8 10 11 0
-20 -14 15 0
2 -4 19 0
8 5 -15 0
-2 -11 -15 0
-5 7 -16 0
16 11 -8 0
-17 -18 2 0
17 -20 -5 0
-1 9 13 0
-3 19 -15 0
-13 -7 15 0
17 -13 -7 0
-12 4 6 0
19 -20 4 0
-11 6 15 0
-2 5 -7 0
9 -13 -6 0
-2 -3 4 0
-17 12 -14 0
16 -17 -14 0
17 -20 13 0
18 20 15 0
17 19 -14 0
-1 4 -15 0
16 9 -14 0
1 -13 -5 0
-17 3 13 0
-1 -10 -7 0
1 5 -6 0
